SECTION Graph
Nodes 311
Edges 579
E 1 236 15
E 1 243 3
E 1 244 1
E 1 247 6
E 2 3 1
E 2 246 3
E 2 247 2
E 3 248 2
E 3 256 7
E 4 6 7
E 5 6 2
E 6 48 325
E 6 52 341
E 7 229 15
E 7 237 2
E 7 241 6
E 7 243 10
E 8 232 14
E 8 237 6
E 8 241 2
E 9 10 15
E 9 160 8
E 10 12 5
E 10 181 8
E 11 144 53
E 11 181 8
E 11 197 8
E 11 219 38
E 12 138 61
E 12 197 3
E 13 222 7
E 13 224 2
E 14 218 4
E 14 220 2
E 14 222 2
E 14 224 7
E 15 16 6
E 15 214 7
E 15 215 5
E 16 17 6
E 16 216 7
E 17 218 7
E 17 224 4
E 18 184 22
E 18 203 4
E 18 210 2
E 18 217 17
E 19 20 8
E 19 173 30
E 19 199 9
E 19 211 2
E 20 21 2
E 20 209 9
E 21 211 8
E 22 23 1
E 22 51 53
E 22 61 23
E 23 25 15
E 23 62 23
E 24 25 1
E 24 50 69
E 25 66 15
E 25 98 60
E 26 45 1
E 26 262 39
E 26 274 2
E 26 287 24
E 27 45 1
E 27 277 2
E 27 281 5
E 27 290 24
E 28 29 1
E 28 281 8
E 28 285 2
E 29 286 2
E 30 267 39
E 30 287 1
E 30 289 1
E 30 291 2
E 31 281 24
E 31 290 5
E 31 295 1
E 32 294 5
E 32 295 2
E 33 81 1
E 33 88 7
E 33 104 36
E 34 85 3
E 34 86 1
E 34 90 1
E 34 121 38
E 35 265 1
E 35 268 7
E 36 265 7
E 36 267 2
E 36 268 1
E 36 291 39
E 37 268 2
E 38 250 1
E 38 252 2
E 38 257 7
E 39 120 169
E 39 250 7
E 39 257 1
E 39 258 1
E 40 252 7
E 40 257 2
E 40 261 1
E 40 262 2
E 41 54 9
E 41 55 2
E 41 57 7
E 41 68 26
E 42 49 59
E 42 52 44
E 42 54 2
E 42 55 9
E 43 46 3
E 43 53 26
E 43 63 44
E 44 47 4
E 44 67 44
E 45 276 2
E 45 288 24
E 46 47 1
E 46 64 44
E 47 65 44
E 48 49 1
E 48 50 9
E 49 51 9
E 50 51 1
E 51 55 59
E 52 53 2
E 53 54 44
E 54 63 26
E 55 56 7
E 56 57 2
E 56 58 8
E 57 59 7
E 57 73 26
E 58 60 2
E 58 87 38
E 59 60 1
E 59 77 26
E 60 79 26
E 60 91 38
E 61 62 1
E 61 87 36
E 62 72 15
E 62 89 36
E 63 64 3
E 63 68 9
E 64 65 1
E 64 70 9
E 65 67 4
E 65 71 9
E 66 69 5
E 66 111 60
E 67 74 9
E 68 70 3
E 68 73 7
E 69 72 3
E 69 117 60
E 70 71 1
E 70 75 7
E 71 74 4
E 71 76 7
E 72 95 36
E 72 126 60
E 73 75 3
E 73 77 7
E 74 78 7
E 75 76 1
E 75 80 7
E 76 78 4
E 76 82 7
E 77 79 1
E 77 80 3
E 78 81 3
E 78 85 8
E 79 83 3
E 79 102 38
E 80 82 1
E 80 83 1
E 81 86 7
E 82 84 1
E 82 86 7
E 83 84 1
E 83 106 38
E 84 85 4
E 84 108 38
E 86 88 1
E 87 89 1
E 87 91 2
E 88 90 1
E 88 116 36
E 89 92 2
E 89 95 15
E 90 118 36
E 90 124 38
E 91 92 1
E 91 94 14
E 92 93 1
E 92 96 14
E 93 97 13
E 93 105 26
E 94 96 1
E 94 99 2
E 95 100 2
E 96 101 2
E 96 110 15
E 97 100 1
E 97 132 26
E 98 111 15
E 98 160 62
E 99 101 1
E 99 102 10
E 100 110 14
E 100 143 30
E 101 103 10
E 101 115 15
E 102 103 1
E 102 106 3
E 103 105 1
E 103 109 3
E 104 107 2
E 104 116 7
E 105 113 3
E 105 132 13
E 106 108 1
E 106 109 1
E 107 120 7
E 107 250 169
E 108 112 1
E 108 121 7
E 109 112 1
E 109 113 1
E 110 115 2
E 110 174 60
E 111 117 5
E 111 129 9
E 112 114 1
E 112 125 7
E 113 114 1
E 113 119 5
E 114 122 5
E 114 128 7
E 115 134 10
E 115 179 60
E 116 118 1
E 116 120 2
E 117 126 3
E 117 138 9
E 118 123 2
E 118 152 38
E 119 137 8
E 120 123 1
E 121 124 1
E 121 125 1
E 122 140 8
E 123 155 38
E 123 258 169
E 124 127 1
E 124 133 4
E 125 127 1
E 125 128 1
E 126 131 2
E 126 158 38
E 127 130 1
E 127 135 4
E 128 130 1
E 128 136 5
E 129 138 5
E 129 181 53
E 130 139 5
E 130 156 36
E 131 144 7
E 131 162 38
E 132 134 1
E 132 137 3
E 133 135 1
E 133 152 32
E 134 141 3
E 134 151 30
E 135 150 15
E 135 153 32
E 136 139 1
E 136 145 8
E 137 140 1
E 137 141 1
E 138 144 3
E 139 146 8
E 139 164 36
E 140 142 1
E 140 145 7
E 141 142 1
E 141 154 30
E 142 147 7
E 142 157 30
E 143 149 8
E 143 151 26
E 144 170 38
E 145 146 1
E 145 147 1
E 146 148 1
E 146 172 36
E 147 148 1
E 147 166 30
E 148 150 4
E 148 168 30
E 149 158 22
E 149 163 26
E 150 171 30
E 150 173 32
E 151 154 3
E 151 163 8
E 152 153 1
E 152 155 2
E 153 156 1
E 153 159 2
E 154 157 1
E 154 167 8
E 155 159 1
E 155 269 169
E 156 161 2
E 156 164 5
E 157 166 7
E 157 169 8
E 158 162 2
E 158 174 14
E 159 161 1
E 159 271 169
E 160 181 15
E 161 165 5
E 161 273 169
E 162 170 7
E 162 180 14
E 163 167 3
E 163 189 22
E 164 165 2
E 164 172 8
E 165 175 8
E 165 278 169
E 166 168 1
E 166 176 8
E 167 169 1
E 167 192 22
E 168 171 4
E 168 178 8
E 169 176 7
E 169 193 22
E 170 186 14
E 170 219 53
E 171 182 5
E 171 184 8
E 172 173 1
E 172 175 2
E 173 177 2
E 174 179 2
E 174 180 2
E 175 177 1
E 175 282 169
E 176 178 1
E 176 202 22
E 177 211 30
E 177 283 169
E 178 184 4
E 178 203 22
E 179 183 2
E 179 189 10
E 180 183 2
E 180 186 7
E 182 185 6
E 182 187 8
E 183 188 7
E 183 190 10
E 184 187 5
E 185 191 6
E 185 194 8
E 186 188 2
E 186 225 53
E 187 194 6
E 187 214 24
E 188 200 10
E 188 226 53
E 189 190 2
E 189 192 3
E 190 195 3
E 190 200 7
E 191 198 4
E 191 201 8
E 192 193 1
E 192 195 2
E 193 196 2
E 193 202 7
E 194 201 6
E 194 216 24
E 195 196 1
E 195 204 7
E 196 205 7
E 196 206 7
E 197 223 38
E 198 199 2
E 198 208 8
E 199 209 8
E 200 204 3
E 200 230 53
E 201 208 4
E 201 217 22
E 202 203 1
E 202 205 2
E 203 207 2
E 204 206 1
E 204 231 53
E 205 207 1
E 205 212 7
E 206 212 7
E 206 233 53
E 207 210 4
E 207 213 7
E 208 209 2
E 208 220 22
E 209 221 22
E 210 214 5
E 210 215 7
E 212 213 1
E 212 235 53
E 213 215 4
E 213 238 53
E 214 216 6
E 216 218 6
E 217 218 2
E 217 220 4
E 219 223 8
E 219 225 14
E 220 221 2
E 221 222 2
E 223 227 14
E 223 228 15
E 225 226 2
E 225 227 8
E 226 229 8
E 226 230 10
E 227 229 2
E 227 237 15
E 228 232 6
E 228 237 14
E 229 234 10
E 230 231 3
E 230 234 8
E 231 233 1
E 231 236 8
E 233 235 7
E 233 239 8
E 234 236 3
E 234 243 15
E 235 238 1
E 235 240 8
E 236 239 1
E 238 242 8
E 239 240 7
E 239 244 15
E 240 242 1
E 240 249 15
E 241 245 10
E 242 251 15
E 243 245 6
E 244 248 6
E 244 249 7
E 245 246 2
E 245 247 3
E 247 248 1
E 248 254 7
E 249 251 1
E 249 254 6
E 251 255 6
E 252 253 2
E 253 262 7
E 253 263 24
E 254 255 1
E 254 256 2
E 255 259 2
E 256 259 1
E 257 260 1
E 258 260 1
E 258 269 38
E 260 261 2
E 260 270 38
E 261 274 38
E 262 266 24
E 263 264 1
E 263 266 7
E 264 265 2
E 264 267 7
E 266 267 1
E 266 287 39
E 269 270 1
E 269 271 1
E 270 272 1
E 270 274 2
E 271 272 1
E 271 273 1
E 272 275 1
E 272 276 2
E 273 275 1
E 273 278 5
E 274 276 1
E 275 277 2
E 275 279 5
E 276 277 1
E 277 280 5
E 278 279 1
E 278 282 8
E 279 280 2
E 279 284 9
E 280 281 2
E 280 285 8
E 282 283 1
E 282 285 3
E 283 284 1
E 284 286 2
E 285 286 1
E 287 288 1
E 288 289 1
E 288 290 1
E 289 292 1
E 289 293 2
E 290 292 1
E 291 293 1
E 292 294 2
E 292 295 5
E 293 294 1
E 1 296 100000
E 2 296 100000
E 3 296 100000
E 4 297 100000
E 5 297 100000
E 6 297 100000
E 7 298 100000
E 8 298 100000
E 9 299 100000
E 10 299 100000
E 11 300 100000
E 12 300 100000
E 13 301 100000
E 14 301 100000
E 15 302 100000
E 16 302 100000
E 17 302 100000
E 18 302 100000
E 19 303 100000
E 20 303 100000
E 21 303 100000
E 22 304 100000
E 23 304 100000
E 24 304 100000
E 25 304 100000
E 26 305 100000
E 27 305 100000
E 28 305 100000
E 29 305 100000
E 30 306 100000
E 31 306 100000
E 32 306 100000
E 33 307 100000
E 34 307 100000
E 35 308 100000
E 36 308 100000
E 37 308 100000
E 38 309 100000
E 39 309 100000
E 40 309 100000
E 41 310 100000
E 42 310 100000
E 43 311 100000
E 44 311 100000
E 45 305 100000
E 46 311 100000
E 47 311 100000
END

SECTION Terminals
Terminals 16
T 296
T 297
T 298
T 299
T 300
T 301
T 302
T 303
T 304
T 305
T 306
T 307
T 308
T 309
T 310
T 311
END

EOF
